(set-info :smt-lib-version 2.6)
(set-logic QF_NRA)
(set-info :source |
Generated by: Ali K. Uncu, Matthew England, and James H. Davenport
Generated on: 2022-02-03

Generator: SUMCracker-ProveInequality function by Manuel Kauers ("https://www3.risc.jku.at/research/combinat/software/ergosum/RISC/SumCracker.html")
Translated to SMT-Lib by Maple SMTLIB package.

Application: CAD calls of In[14] on page 12 in
M. Kauers, SumCracker: A Package for Manipulating Symbolic Sums and Related Objects, 
Journal of Symbolic Computation 41(9), 2006, pp. 1039-1057. 
(https://www.sciencedirect.com/science/article/pii/S0747717106000502)

All denominators in the original CAD call got cleared in a simple way:
a/b == c/d --> a d==b c && b<>0 && d<>0
a/b > c/d --> a d^2 > b^2 c && b<>0 && d<>0
|)
(set-info :license "https://creativecommons.org/licenses/by/4.0/")
(set-info :status sat)
(set-info :category "industrial")


(declare-fun V1 () Real)
(declare-fun V2 () Real)
(declare-fun V3 () Real)
(declare-fun V4 () Real)
(declare-fun V5 () Real)
(assert (and (<= (* (+ (- 1) V1 V2) (+ (* V3 V3) (* (* V3 V4) 2) (* V4 V4) (* V3 (- 6)) (* V4 (- 6)) 9)) (* (* (+ (- 1) V1 V2) (+ (- 1) V1 V2)) V5)) (<= (* (* V2 V2) (+ (- 1) V1 (* V2 2)) (+ (* V3 V3) (* (* V3 V4) 4) (* (* V4 V4) 4) (* V3 (- 6)) (* V4 (- 12)) 9)) (* V2 (* (+ (- 1) V1 (* V2 2)) (+ (- 1) V1 (* V2 2))) (+ (* V2 V5) (* V4 V4)))) (< (* V2 (+ V1 V2) (* (+ (- 1) (* V1 2) (* V2 3)) (+ (- 1) (* V1 2) (* V2 3))) (+ (* V1 V2 V5) (* V1 (* V4 V4)) (* (* V2 V2) V5) (* V2 (* V3 V3)) (* (* V2 V3 V4) 2) (* (* V2 (* V4 V4)) 2))) (* (* V2 V2) (* (+ V1 V2) (+ V1 V2)) (+ (- 1) (* V1 2) (* V2 3)) (+ (* (* V3 V3) 4) (* (* V3 V4) 12) (* (* V4 V4) 9) (* V3 (- 12)) (* V4 (- 18)) 9))) (not (= (+ (- 1) V1 V2) 0)) (not (= V2 0)) (not (= (+ (- 1) V1 (* V2 2)) 0)) (not (= (* V2 (+ V1 V2)) 0)) (not (= (+ (- 1) (* V1 2) (* V2 3)) 0))))
(check-sat)
(exit)





